100 47446

 708 208
153 27
577 182
607 584
425 422
737 893
935 818
926 342
451 260
114 380
985 591
839 269
125 625
921 410
870 553
519 437
592 295
400 949
55 764
336 141
803 869
5 488
334 895
399 800
538 426
920 23
347 269
347 542
738 634
453 258
225 140
453 835
141 985
177 526
499 172
419 273
915 19
363 915
581 118
633 577
14 275
664 555
179 652
962 830
149 207
415 11
86 137
997 901
503 874
596 598
68 601
750 666
210 176
899 915
206 419
191 384
37 519
473 47
565 167
66 739
776 83
454 604
525 246
441 390
401 289
560 356
156 720
182 298
862 567
947 477
374 664
271 937
644 733
409 215
26 32
157 263
716 596
659 52
28 497
222 597
232 335
672 771
20 107
105 76
800 729
179 496
653 689
239 435
100 247
244 820
723 800
856 695
831 273
398 591
669 361
205 92
294 918
897 137
14 951
86 447
